&CONTROL
       calculation='relax'
       title='NB relax'
       prefix='NB'
      ! verbosity='high'
       restart_mode='from_scratch'
       nstep=100
      ! iprint=1
       tprnfor=.true.
       outdir= "/home/fernando/serse/temp",
       !disk_io='default',
       pseudo_dir='/home/fernando/serse/pseudos',
       tstress=.FALSE.,
       forc_conv_thr=1.0d-4
       etot_conv_thr=1.0d-5
/
&SYSTEM
  ibrav = 8,
  celldm(1) =28.119,
  celldm(2) = 0.713709677,
  celldm(3) = 3.024193548 ,
  nat = 54  ,
  ntyp = 2,
  ecutwfc =100.0 ,
  occupations = 'smearing' ,
  degauss = 1.0d-2 ,
  smearing = 'gaussian' ,
  !vdw_corr = 'grimme-d3',
/
&ELECTRONS
  electron_maxstep = 100,
  conv_thr = 1.0d-8 ,
  mixing_mode = 'plain' ,
  mixing_beta = 0.7 ,
  !diagonalization ='cg'
/
&IONS
/
ATOMIC_SPECIES
 Nb    92.90638  Nb.pbe-sp-hgh.UPF
 C    12.011     C.pbe-hgh.UPF
ATOMIC_POSITIONS ( angstrom )
Nb    0.000000000   1.758643443   1.242551090
Nb    0.000000000   5.298627724   1.242551090
Nb    0.000000000   8.838612005   1.242551090
Nb    2.479988988   10.608704047  1.072077663
Nb    2.479988988   7.068719766   1.072077663
Nb    2.479988988   3.528735485   1.072077663
Nb    4.959977976   1.758643443   1.242551090
Nb    4.959977976   5.298627724   1.242551090
Nb    4.959977976   8.838612005   1.242551090
Nb    7.439966964   10.608704047  1.072077663
Nb    7.439966964   7.068719766   1.072077663
Nb    7.439966964   3.528735485   1.072077663
Nb    9.919955952   1.758643443   1.242551090
Nb    9.919955952   5.298627724   1.242551090
Nb    9.919955952   8.838612005   1.242551090
Nb    12.399944940  10.608704047  1.072077663
Nb    12.399944940  7.068719766   1.072077663
Nb    12.399944940  3.528735485   1.072077663

C   0.685728284   10.608581010   0.028675112
C   0.685728284    7.068596729   0.028675112
C   0.685728284    3.528612448   0.028675112
C   1.794280212    1.758662872   2.285995095
C   1.794280212    5.298647153   2.285995095
C   1.794280212    8.838631434   2.285995095
C   3.165697764    8.838631434   2.285995095
C   3.165697764    5.298647153   2.285995095
C   3.165697764    1.758662872   2.285995095
C   4.274249692   10.608581010   0.028675112

C   5.645706260   10.608581010   0.028675112
C   4.274249692    7.068596729   0.028675112
C   5.645706260    7.068596729   0.028675112
C   4.274249692    3.528612448   0.028675112
C   5.645706260    3.528612448   0.028675112
C   6.754258188    1.758662872   2.285995095
C   8.125675740    1.758662872   2.285995095
C   6.754258188    5.298647153   2.285995095
C   8.125675740    5.298647153   2.285995095
C   6.754258188    8.838631434   2.285995095

C   8.125675740    8.838631434   2.285995095
C   9.234227668   10.608581010   0.028675112
C  10.605684236   10.608581010   0.028675112
C   9.234227668    7.068596729   0.028675112
C  10.605684236    7.068596729   0.028675112
C   9.234227668    3.528612448   0.028675112
C  10.605684236    3.528612448   0.028675112
C  11.714236164    1.758662872   2.285995095
C  13.085653716    1.758662872   2.285995095
C  11.714236164    5.298647153   2.285995095

C  14.194205644    3.528612448   0.028675112
C  14.194205644    7.068596729   0.028675112
C  14.194205644   10.608581010   0.028675112
C  11.714236164    8.838631434   2.285995095
C  13.085653716    8.838631434   2.285995095
C  13.085653716    5.298647153   2.285995095

K_POINTS (automatic)
5 5 1 0 0 0

