&CONTROL
       calculation='relax',
       title='NB relax',
       prefix='NB',
      ! verbosity='high',
       restart_mode='from_scratch',
       nstep=100,
       tprnfor=.true.,
       outdir= "/home/fernando/serse/temp",
       !disk_io='default',
       pseudo_dir='/home/fernando/serse/pseudos',
       tstress=.false.,
       forc_conv_thr=1.0d-4,
       etot_conv_thr=1.0d-5,
/
&SYSTEM
  ibrav = 0,
  celldm(1) = 9.3730, 
  nat =6  ,
  ntyp = 2,
  ecutwfc =70.0 ,
  ecutrho =400.0 ,
  occupations = 'smearing' ,
  degauss = 1.0d-2 ,
  smearing = 'gaussian' ,
  !vdw_corr = 'grimme-d3', 
/
&ELECTRONS
  electron_maxstep = 100,
  conv_thr = 1.0d-8 ,
  mixing_mode = 'plain' ,
  mixing_beta = 0.7 ,
  !diagonalization ='cg'
/
&IONS
/
ATOMIC_SPECIES
 Nb    92.90638  Nb.pbe-sp-hgh.UPF
 C    12.011     C.pbe-hgh.UPF
CELL_PARAMETERS (alat = 4.96)
  1.00000 0.00000         0.0000000
  0.00000 0.71370967741   0.0000000
  0.00000 0.00000000000   6.000000

ATOMIC_POSITIONS ( alat = 4.96 )
 Nb            0.5000000000       -0.0022776697        0.2154592030
 Nb            0.0000000000        0.3545576639        0.2512002809
 C             1.1378722060       -0.0022987080        0.0060616136
 C             1.8621277940       -0.0022987080        0.0060616130
 C             1.3621282550        0.3545861303        0.4606086441
 C             1.6378717450        0.3545861303        0.4606086458


K_POINTS automatic
5 5 1 0 0 0
