&CONTROL
       calculation='relax',
       title='NB relax',
       prefix='NB',
      ! verbosity='high',
       restart_mode='from_scratch',
       nstep=100,
       tprnfor=.true.,
       outdir= "/home/fernando/serse/temp",
       !disk_io='default',
       pseudo_dir='/home/fernando/serse/pseudos',
       tstress=.false.,
       forc_conv_thr=1.0d-4,
       etot_conv_thr=1.0d-5,
/
&SYSTEM
  ibrav = 0,
  celldm(1) = 9.3730, 
  nat =6  ,
  ntyp = 2,
  ecutwfc =70.0 ,
  ecutrho =400.0 ,
  occupations = 'smearing' ,
  degauss = 1.0d-2 ,
  smearing = 'gaussian' ,
  !vdw_corr = 'grimme-d3', 
/
&ELECTRONS
  electron_maxstep = 100,
  conv_thr = 1.0d-8 ,
  mixing_mode = 'plain' ,
  mixing_beta = 0.7 ,
  !diagonalization ='cg'
/
&IONS
/
ATOMIC_SPECIES
 Nb    92.90638  Nb.pbe-sp-hgh.UPF
 C    12.011     C.pbe-hgh.UPF
CELL_PARAMETERS (alat = 4.96)
  1.00000 0.00000         0.0000000
  0.00000 0.71370967741   0.0000000
  0.00000 0.00000000000   6.000000

ATOMIC_POSITIONS ( alat = 4.96 )
 Nb  0.500000         0.000000000   0.4000000
 Nb  0.00000000      0.3568548387  0.2000000000 
 C   1.25000        0.0000000        0.0000
 C   1.75000         0.000000         0.0000
 C   1.4000          0.35             0.400
 C   1.60000         0.35             0.4000 


K_POINTS automatic
5 5 1 0 0 0
