&CONTROL
       calculation='relax'
       title='NB relax'
       prefix='NB'
      ! verbosity='high'
       restart_mode='from_scratch'
       nstep=100
      ! iprint=1
       tprnfor=.true.
       outdir= "/home/fernando/serse/temp",
       !disk_io='default',
       pseudo_dir='/home/fernando/serse/pseudos',
       tstress=.FALSE.,
       forc_conv_thr=1.0d-4
       etot_conv_thr=1.0d-5
/
&SYSTEM
  ibrav = 8,
  celldm(1) = 37.492168,
  celldm(2) = 0.713709677,
  celldm(3) = 3.024193548 ,
  nat = 96  ,
  ntyp = 2,
  ecutwfc =60.0 ,
  occupations = 'smearing' ,
  degauss = 1.0d-2 ,
  smearing = 'gaussian' ,
  !vdw_corr = 'grimme-d3',
/
&ELECTRONS
  electron_maxstep = 100,
  conv_thr = 1.0d-8 ,
  mixing_mode = 'plain' ,
  mixing_beta = 0.7 ,
  !diagonalization ='cg'
/
&IONS
/
ATOMIC_SPECIES
 Nb    92.90638  Nb.pbe-sp-hgh.UPF
 C    12.011     C.pbe-hgh.UPF
ATOMIC_POSITIONS ( angstrom )

Nb  0.000000000  12.378640116   1.244455993
Nb  0.000000000   8.838638372   1.244455993
Nb  0.000000000   5.298636628   1.244455993
Nb  0.000000000   1.758634884   1.244455993
Nb  2.480000101  14.148706511   1.070190391
Nb  2.480000101  10.608704767   1.070190391
Nb  2.480000101   7.068703023   1.070190391
Nb  2.480000101   3.528701279   1.070190391
Nb  4.960000202  12.378640116   1.244455993
Nb  4.960000202   8.838638372   1.244455993
Nb  4.960000202   5.298636628   1.244455993
Nb  4.960000202   1.758634884   1.244455993
Nb  7.440000303  14.148706511   1.070190391
Nb  7.440000303  10.608704767   1.070190391
Nb  7.440000303   7.068703023   1.070190391
Nb  7.440000303   3.528701279   1.070190391
Nb  9.920000404  12.378640116   1.244455993
Nb  9.920000404   8.838638372   1.244455993
Nb  9.920000404   5.298636628   1.244455993
Nb  9.920000404   1.758634884   1.244455993 

Nb 12.400000505  14.148706511   1.070190391
Nb 12.400000505  10.608704767   1.070190391
Nb 12.400000505   7.068703023   1.070190391
Nb 12.400000505   3.528701279   1.070190391
Nb 14.880000606  12.378640116   1.244455993
Nb 14.880000606   8.838638372   1.244455993
Nb 14.880000606   5.298636628   1.244455993
Nb 14.880000606   1.758634884   1.244455993
Nb 17.360000707  14.148706511   1.070190391
Nb 17.360000707  10.608704767   1.070190391
Nb 17.360000707   7.068703023   1.070190391
Nb 17.360000707   3.528701279   1.070190391

C   0.684300077  14.148595193   0.032440047
C   0.684300077  10.608593449   0.032440047
C   0.684300077   7.068591705   0.032440047
C   0.684300077   3.528589961   0.032440047
C   1.795693350  12.378749913   2.282236900
C   1.795693350   8.838748169   2.282236900
C   1.795693350   5.298746425   2.282236900
C   1.795693350   1.758744681   2.282236900
C   3.164306851  12.378749913   2.282236909
C   3.164306851   8.838748169   2.282236909
C   3.164306851   5.298746425   2.282236909
C   3.164306851   1.758744681   2.282236909 

C  4.275700124  14.148595193   0.032440044
C  4.275700124  10.608593449   0.032440044
C  4.275700124   7.068591705   0.032440044
C  4.275700124   3.528589961   0.032440044
C  5.644300279  14.148595193   0.032440047
C  5.644300279  10.608593449   0.032440047
C  5.644300279   7.068591705   0.032440047
C  5.644300279   3.528589961   0.032440047
C  6.755693552  12.378749913   2.282236900
C  6.755693552   8.838748169   2.282236900
C  6.755693552   5.298746425   2.282236900
C  6.755693552   1.758744681   2.282236900
C  8.124307053  12.378749913   2.282236909
C  8.124307053   8.838748169   2.282236909
C  8.124307053   5.298746425   2.282236909
C  8.124307053   1.758744681   2.282236909

C  9.235700326  14.148595193   0.032440044
C  9.235700326  10.608593449   0.032440044
C  9.235700326   7.068591705   0.032440044
C  9.235700326   3.528589961   0.032440044
C  10.604300481   3.528589961   0.032440047
C  10.604300481   7.068591705   0.032440047
C  10.604300481  10.608593449   0.032440047
C  10.604300481  14.148595193   0.032440047
C  11.715693754  12.378749913   2.282236900
C  11.715693754   8.838748169   2.282236900
C  11.715693754   5.298746425   2.282236900
C  11.715693754   1.758744681   2.282236900
C  13.084307255   1.758744681   2.282236909
C  13.084307255   5.298746425   2.282236909
C  13.084307255   8.838748169   2.282236909
C  13.084307255  12.378749913   2.282236909

C  14.195700528  14.148595193   0.032440044
C  14.195700528  10.608593449   0.032440044
C  14.195700528   7.068591705   0.032440044
C  14.195700528   3.528589961   0.032440044
C  15.564300683   3.528589961   0.032440047
C  15.564300683   7.068591705   0.032440047
C  15.564300683  10.608593449   0.032440047
C  15.564300683  14.148595193   0.032440047
C  16.675693956  12.378749913   2.282236900
C  16.675693956   8.838748169   2.282236900
C  16.675693956   5.298746425   2.282236900
C  16.675693956   1.758744681   2.282236900
C  18.044307457   1.758744681   2.282236909
C  18.044307457   5.298746425   2.282236909
C  18.044307457   8.838748169   2.282236909
C  18.044307457  12.378749913   2.282236909
C  19.155700730  14.148595193   0.032440044
C  19.155700730  10.608593449   0.032440044
C  19.155700730   7.068591705   0.032440044
C  19.155700730   3.528589961   0.032440044
K_POINTS automatic
5 5 1 0 0 0
