&CONTROL
       calculation='relax',
       title='NB relax',
       prefix='NB',
      ! verbosity='high',
       restart_mode='from_scratch',
       nstep=100,
       tprnfor=.true.,
       outdir= "/home/fernando/serse/temp",
       !disk_io='default',
       pseudo_dir='/home/fernando/serse/pseudos',
       tstress=.false.,
       forc_conv_thr=1.0d-4,
       etot_conv_thr=1.0d-5,
/
&SYSTEM
  ibrav = 8,
  celldm(1) = 18.59491,
  celldm(2) = 0.713709677,
  celldm(3) = 3.024193548 ,
  nat =24  ,
  ntyp = 2,
  ecutwfc = 120.0 ,
  ecutrho =400.0 ,
  occupations = 'smearing' ,
  degauss = 1.0d-2 ,
  smearing = 'gaussian' ,
  !vdw_corr = 'grimme-d3',
/
&ELECTRONS
  electron_maxstep = 100,
  conv_thr = 1.0d-8 ,
  mixing_mode = 'plain' ,
  mixing_beta = 0.7 ,
  !diagonalization ='cg'
/
&IONS
/
ATOMIC_SPECIES
 Nb    92.90638  Nb.pbe-sp-hgh.UPF
 C    12.011     C.pbe-hgh.UPF
ATOMIC_POSITIONS ( angstrom )
Nb            0.0365942104        1.7798885511        1.2406667517
Nb            4.9567304207        1.7799087965        1.2419773119
Nb            2.4964655283        3.5359056836        1.0729908338
Nb            7.4168730820        3.5359244531        1.0733251300
Nb            0.0365999037        5.2914140671        1.2408536540
Nb            4.9567329261        5.2914302850        1.2421754988
Nb            2.4964696974        7.0474195867        1.0731716926
Nb            7.4168861542        7.0474341189        1.0734902112
C             1.8142328928        1.7803446503        2.3094353540
C             3.1781844805        1.7803258753        2.3095508001
C             6.7350747685        1.7803829153        2.3098677632
C             8.0990460999        1.7803118605        2.3095846520
C             0.7185702899        3.5356124199        0.0043524425
C             4.2748047981        3.5356056907        0.0055053181
C             5.6387106376        3.5356468027        0.0055375422
C             1.8142502246        5.2917482742        2.3095549408
C             3.1781476377        5.2916859478        2.3096610183
C             6.7351237028        5.2917606611        2.3099587406
C             8.0990427334        5.2917281512        2.3096950930
C             9.1946637146        3.5355787271        0.0044508554
C             0.7185870048        7.0469889469        0.0044502494
C             4.2748173541        7.0469770099        0.0055935995
C             5.6387223042        7.0470195292        0.0056135005
C             9.1946738698        7.0469612640        0.0045381822

K_POINTS automatic
5 5 1 0 0 0

