&CONTROL
       calculation='relax',
       title='NB relax',
       prefix='NB',
      ! verbosity='high',
       restart_mode='from_scratch',
       nstep=100,
       tprnfor=.true.,
       outdir= "/home/fernando/serse/temp",
       !disk_io='default',
       pseudo_dir='/home/fernando/serse/pseudos',
       tstress=.false.,
       forc_conv_thr=1.0d-4,
       etot_conv_thr=1.0d-5,
/
&SYSTEM
  ibrav = 8,
  celldm(1) = 9.373042,
  celldm(2) = 0.713709677,
  celldm(3) = 3.024193548 ,
  nat =24  ,
  ntyp = 2,
  ecutwfc = 80.0 ,
  ecutrho =400.0 ,
  occupations = 'smearing' ,
  degauss = 1.0d-2 ,
  smearing = 'gaussian' ,
  !vdw_corr = 'grimme-d3', 
/
&ELECTRONS
  electron_maxstep = 100,
  conv_thr = 1.0d-8 ,
  mixing_mode = 'plain' ,
  mixing_beta = 0.7 ,
  !diagonalization ='cg'
/
&IONS
/
ATOMIC_SPECIES
 Nb    92.90638  Nb.pbe-sp-hgh.UPF
 C    12.011     C.pbe-hgh.UPF
ATOMIC_POSITIONS ( alat = 4.96 )
  Nb       0.000000000   .758634884    1.244455993
  C        0.684300077   3.528588359   0.032440047
  Nb       0.000000000   5.298635026   1.244455993
  C        0.684300077   7.068588501   0.032440047
  C        1.795693350   1.758744681   2.282236900
  C        3.164306851   1.758744681   2.282236909
  Nb       2.480000101   3.528699677   1.070190391
  C        1.795693350   5.298744823   2.282236900
  C        3.164306851   5.298744823   2.282236909
  Nb       2.480000101   7.068699819   1.070190391
  C        4.275700124   7.068588501   0.032440044
  C        5.644300279   7.068588501   0.032440047
  Nb       4.960000202   5.298635026   1.244455993
  C        4.275700124   3.528588359   0.032440044
  C        5.644300279   3.528588359   0.032440047
  Nb       4.960000202   1.758634884   1.244455993
  C        6.755693552   1.758744681   2.282236900
  C        8.124307053   1.758744681   2.282236909
  Nb       7.440000303   3.528699677   1.070190391
  C        6.755693552   5.298744823   2.282236900
  C         8.124307053   5.298744823   2.282236909
  Nb        7.440000303   7.068699819   1.070190391
  C         9.235700326   7.068588501   0.032440044
  Nb        9.920000404   5.298635026   1.244455993
  C         9.235700326   3.528588359   0.032440044
  Nb        9.920000404   1.758634884   1.244455993



K_POINTS automatic
5 5 1 0 0 0
